Version identifier: 22.1.0.0 | 2022-03-09 | 1a383f8ce
CPXPARAM_Threads                                 1
CPXPARAM_MIP_Strategy_VariableSelect             3
CPXPARAM_TimeLimit                               600
Retaining values of one MIP start for possible repair.
Tried aggregator 2 times.
MIP Presolve eliminated 38 rows and 1 columns.
MIP Presolve added 36 rows and 9 columns.
MIP Presolve modified 46 coefficients.
Aggregator did 9 substitutions.
Reduced MIP has 1815 rows, 7800 columns, and 125454 nonzeros.
Reduced MIP has 7800 binaries, 0 generals, 0 SOSs, and 0 indicators.
Presolve time = 0.16 sec. (223.24 ticks)
Found incumbent of value 1.000000 after 0.21 sec. (247.02 ticks)
Probing time = 0.03 sec. (24.29 ticks)
Tried aggregator 1 time.
Detecting symmetries...
MIP Presolve modified 12 coefficients.
Reduced MIP has 1815 rows, 7800 columns, and 125754 nonzeros.
Reduced MIP has 7800 binaries, 0 generals, 0 SOSs, and 0 indicators.
Presolve time = 0.12 sec. (171.00 ticks)
Probing time = 0.03 sec. (24.31 ticks)
Clique table members: 899.
MIP emphasis: balance optimality and feasibility.
MIP search method: dynamic search.
Parallel mode: none, using 1 thread.
Root relaxation solution time = 1.86 sec. (2269.75 ticks)

        Nodes                                         Cuts/
   Node  Left     Objective  IInf  Best Integer    Best Bound    ItCnt     Gap

*     0+    0                            1.0000    45150.0000              --- 
      0     0      300.0000  1123        1.0000      300.0000     4981     --- 
*     0+    0                           63.0000      300.0000           376.19%
      0     0      300.0000   888       63.0000       Cuts: 9    10898  376.19%
      0     0      300.0000   393       63.0000      Cuts: 15    14812  376.19%
      0     0      300.0000   371       63.0000       Cuts: 6    15791  376.19%
*     0+    0                          274.0000      300.0000             9.49%
*     0+    0                          288.0000      300.0000             4.17%
      0     0        cutoff            288.0000      300.0000    15791    4.17%
*     0+    0                          292.0000      300.0000             2.74%
      0     0        cutoff            292.0000      300.0000    15791    2.74%
Repair heuristic found nothing.
Detecting symmetries...
      0     2      300.0000   267      292.0000      300.0000    15791    2.74%
Elapsed time = 73.61 sec. (83128.33 ticks, tree = 0.01 MB, solutions = 5)
      1     3      300.0000   445      292.0000      300.0000    23936    2.74%
      2     4      300.0000   360      292.0000      300.0000    28405    2.74%
      3     5      300.0000   368      292.0000      300.0000    32645    2.74%
      4     6      300.0000   362      292.0000      300.0000    33453    2.74%
      5     7      300.0000   343      292.0000      300.0000    34604    2.74%
      6     8      300.0000   324      292.0000      300.0000    44616    2.74%
      7     9      300.0000   294      292.0000      300.0000    49356    2.74%
      8    10      300.0000   288      292.0000      300.0000    54669    2.74%
      9    11      300.0000   978      292.0000      300.0000    60941    2.74%
     11    13      300.0000   964      292.0000      300.0000    67958    2.74%
Elapsed time = 95.51 sec. (106393.69 ticks, tree = 0.12 MB, solutions = 5)
     12    14      300.0000   289      292.0000      300.0000    69623    2.74%
     13    15      300.0000   361      292.0000      300.0000    74477    2.74%
     14    16      300.0000   562      292.0000      300.0000    80600    2.74%
     15    17      300.0000  1193      292.0000      300.0000    86941    2.74%
     16    18      300.0000   345      292.0000      300.0000    95815    2.74%
     17    19      300.0000   399      292.0000      300.0000   100832    2.74%
     19    21      300.0000   328      292.0000      300.0000   103158    2.74%
     21    23      300.0000   331      292.0000      300.0000   106547    2.74%
     24    26      300.0000   328      292.0000      300.0000   110803    2.74%
     27    29      300.0000   345      292.0000      300.0000   119026    2.74%
Elapsed time = 115.62 sec. (127411.73 ticks, tree = 0.33 MB, solutions = 5)
     29    31      300.0000   410      292.0000      300.0000   129080    2.74%
     31    33      300.0000   368      292.0000      300.0000   138596    2.74%
     33    35      300.0000   444      292.0000      300.0000   149724    2.74%
     35    37      300.0000  1338      292.0000      300.0000   159688    2.74%
     37    39      300.0000   906      292.0000      300.0000   162508    2.74%
     38    40      300.0000   703      292.0000      300.0000   170074    2.74%
     39    41      300.0000  1162      292.0000      300.0000   174312    2.74%
     41    43      300.0000   556      292.0000      300.0000   181790    2.74%
     42    44      300.0000   779      292.0000      300.0000   193446    2.74%
     44    46      300.0000   511      292.0000      300.0000   195773    2.74%
Elapsed time = 137.65 sec. (150447.54 ticks, tree = 0.64 MB, solutions = 5)
     47    49      300.0000   406      292.0000      300.0000   199534    2.74%
     48    50      300.0000   443      292.0000      300.0000   204787    2.74%
     50    52      300.0000   445      292.0000      300.0000   208087    2.74%
     52    54      300.0000   462      292.0000      300.0000   212483    2.74%
     56    58      300.0000   433      292.0000      300.0000   218707    2.74%
     58    60      300.0000   435      292.0000      300.0000   224114    2.74%
     60    62      300.0000   412      292.0000      300.0000   229741    2.74%
     62    64      300.0000   404      292.0000      300.0000   233571    2.74%
     65    67      300.0000   368      292.0000      300.0000   237259    2.74%
     68    70      300.0000   345      292.0000      300.0000   240186    2.74%
Elapsed time = 152.95 sec. (165288.13 ticks, tree = 1.06 MB, solutions = 5)
     70    72      300.0000   339      292.0000      300.0000   244469    2.74%
     71    73      300.0000   423      292.0000      300.0000   251571    2.74%
     74    76      300.0000   311      292.0000      300.0000   256764    2.74%
     76    78      300.0000   314      292.0000      300.0000   263129    2.74%
     78    80      300.0000   310      292.0000      300.0000   268826    2.74%
     80    82      300.0000   290      292.0000      300.0000   274397    2.74%
     82    84      300.0000   282      292.0000      300.0000   279649    2.74%
     85    87      300.0000   289      292.0000      300.0000   285810    2.74%
     86    88      300.0000   341      292.0000      300.0000   289491    2.74%
     87    89      300.0000   362      292.0000      300.0000   295394    2.74%
Elapsed time = 179.47 sec. (190955.40 ticks, tree = 1.37 MB, solutions = 5)
     89    91      300.0000   375      292.0000      300.0000   302044    2.74%
     91    93      300.0000   388      292.0000      300.0000   309030    2.74%
     93    95      300.0000   337      292.0000      300.0000   315362    2.74%
     96    97      300.0000   304      292.0000      300.0000   319897    2.74%
     98    99      300.0000   335      292.0000      300.0000   329789    2.74%
     99   100      300.0000   711      292.0000      300.0000   333884    2.74%
    100   101      300.0000   340      292.0000      300.0000   338131    2.74%
    102   103      300.0000   364      292.0000      300.0000   340334    2.74%
    103   104      300.0000   415      292.0000      300.0000   348444    2.74%
    105   106      300.0000   336      292.0000      300.0000   358859    2.74%
Elapsed time = 195.01 sec. (206955.61 ticks, tree = 1.68 MB, solutions = 5)
    108   109      300.0000   380      292.0000      300.0000   366068    2.74%
    110   111      300.0000   345      292.0000      300.0000   368981    2.74%
    114   115      300.0000   324      292.0000      300.0000   373818    2.74%
    116   117      300.0000   329      292.0000      300.0000   382831    2.74%
    119   120      300.0000   346      292.0000      300.0000   389574    2.74%
    121   122      300.0000   337      292.0000      300.0000   396738    2.74%
    123   124      300.0000   351      292.0000      300.0000   406324    2.74%
    126   127      300.0000   377      292.0000      300.0000   418237    2.74%
    128   129      300.0000   331      292.0000      300.0000   425167    2.74%
    130   131      300.0000   357      292.0000      300.0000   434109    2.74%
Elapsed time = 213.43 sec. (223459.94 ticks, tree = 2.10 MB, solutions = 5)
    133   134      300.0000   288      292.0000      300.0000   438256    2.74%
    134   135      300.0000   321      292.0000      300.0000   447149    2.74%
    136   137      300.0000   331      292.0000      300.0000   454200    2.74%
    138   139      300.0000   380      292.0000      300.0000   472652    2.74%
    140   141      300.0000   293      292.0000      300.0000   472893    2.74%
    141   142      300.0000   476      292.0000      300.0000   480358    2.74%
    143   144      300.0000   369      292.0000      300.0000   489767    2.74%
    146   147      300.0000   285      292.0000      300.0000   494957    2.74%
    147   148      300.0000   335      292.0000      300.0000   505552    2.74%
    150   151      300.0000   325      292.0000      300.0000   511719    2.74%
Elapsed time = 229.94 sec. (238206.71 ticks, tree = 2.30 MB, solutions = 5)
    152   153      300.0000   310      292.0000      300.0000   518820    2.74%
    154   155      300.0000   316      292.0000      300.0000   527544    2.74%
    156   157      300.0000   394      292.0000      300.0000   532945    2.74%
    158   159      300.0000   367      292.0000      300.0000   540736    2.74%
    160   161      300.0000   329      292.0000      300.0000   550151    2.74%
    164   165      300.0000   362      292.0000      300.0000   559360    2.74%
    166   167      300.0000   355      292.0000      300.0000   568832    2.74%
    168   169      300.0000   401      292.0000      300.0000   579419    2.74%
    170   171      300.0000   332      292.0000      300.0000   586943    2.74%
    173   174      300.0000   292      292.0000      300.0000   593416    2.74%
Elapsed time = 244.44 sec. (251472.21 ticks, tree = 2.38 MB, solutions = 5)
    174   175      300.0000   372      292.0000      300.0000   605954    2.74%
    177   178      300.0000   285      292.0000      300.0000   610869    2.74%
    179   180      300.0000   286      292.0000      300.0000   618111    2.74%
    180   181      300.0000   328      292.0000      300.0000   627972    2.74%
    182   183      300.0000   313      292.0000      300.0000   633741    2.74%
    184   185      300.0000   297      292.0000      300.0000   640830    2.74%
    187   188      300.0000   260      292.0000      300.0000   644031    2.74%
    188   189      300.0000   337      292.0000      300.0000   651644    2.74%
    190   191      300.0000   371      292.0000      300.0000   664754    2.74%
    192   193      300.0000   528      292.0000      300.0000   692672    2.74%
Elapsed time = 262.48 sec. (268480.12 ticks, tree = 2.44 MB, solutions = 5)
    199   200      300.0000   315      292.0000      300.0000   711564    2.74%
    202   203      300.0000   561      292.0000      300.0000   729717    2.74%
    208   207      300.0000   406      292.0000      300.0000   761180    2.74%
    210   207      300.0000   380      292.0000      300.0000   789344    2.74%
    212   209      300.0000   446      292.0000      300.0000   806281    2.74%
    219   210    infeasible            292.0000      300.0000   834220    2.74%
    227   212    infeasible            292.0000      300.0000   847194    2.74%
    236   213      300.0000   410      292.0000      300.0000   857774    2.74%
    240   215      300.0000   419      292.0000      300.0000   861964    2.74%
    248   215      300.0000   448      292.0000      300.0000   871992    2.74%
Elapsed time = 310.70 sec. (317760.12 ticks, tree = 2.54 MB, solutions = 5)
    254   217    infeasible            292.0000      300.0000   882847    2.74%
    262   217    infeasible            292.0000      300.0000   895120    2.74%
    271   220      300.0000   471      292.0000      300.0000   904781    2.74%
    279   222      300.0000   446      292.0000      300.0000   914820    2.74%
    287   222      300.0000   471      292.0000      300.0000   926592    2.74%
    296   223    infeasible            292.0000      300.0000   938072    2.74%
    304   223      300.0000   381      292.0000      300.0000   952051    2.74%
    309   228      300.0000   467      292.0000      300.0000   959831    2.74%
    314   233      300.0000   455      292.0000      300.0000   968658    2.74%
    319   238      300.0000   674      292.0000      300.0000   978863    2.74%
Elapsed time = 347.59 sec. (359482.67 ticks, tree = 2.61 MB, solutions = 5)
    320   239      300.0000   566      292.0000      300.0000   979597    2.74%
    326   245      300.0000   480      292.0000      300.0000   987639    2.74%
    333   252      300.0000   455      292.0000      300.0000   995315    2.74%
    339   258      300.0000   429      292.0000      300.0000  1004459    2.74%
    340   258      299.0000   456      292.0000      300.0000  1008123    2.74%
    347   265      300.0000   385      292.0000      300.0000  1017525    2.74%
    355   272      300.0000   324      292.0000      300.0000  1028783    2.74%
    363   279      300.0000   280      292.0000      300.0000  1040335    2.74%
    370   285      300.0000   293      292.0000      300.0000  1053254    2.74%
    377   290      300.0000   248      292.0000      300.0000  1066824    2.74%
Elapsed time = 386.18 sec. (399862.45 ticks, tree = 2.79 MB, solutions = 5)
    385   296      299.0000   255      292.0000      300.0000  1080632    2.74%
    393   303      299.0000   202      292.0000      300.0000  1092952    2.74%
    400   307      298.0000   298      292.0000      300.0000  1107866    2.74%
    408   312      298.0000   398      292.0000      300.0000  1123051    2.74%
    418   317      297.4863   455      292.0000      300.0000  1140391    2.74%
    427   322      296.6426   428      292.0000      300.0000  1152955    2.74%
    440   332      295.0000   282      292.0000      300.0000  1163979    2.74%
    454   342      295.0000   325      292.0000      300.0000  1175570    2.74%
    460   348      295.0000   370      292.0000      300.0000  1177085    2.74%
    474   355      295.0000   323      292.0000      300.0000  1186267    2.74%
Elapsed time = 428.36 sec. (441896.48 ticks, tree = 3.01 MB, solutions = 5)
    490   365      295.0000   222      292.0000      300.0000  1197181    2.74%
    505   368      295.0000   293      292.0000      300.0000  1209666    2.74%
    522   369      295.0000   258      292.0000      300.0000  1221614    2.74%
    525   367      299.0000   421      292.0000      300.0000  1233225    2.74%
    526   368      300.0000   375      292.0000      300.0000  1242259    2.74%
    531   371    infeasible            292.0000      300.0000  1253544    2.74%
    538   374    infeasible            292.0000      300.0000  1262231    2.74%
    549   379    infeasible            292.0000      300.0000  1274665    2.74%
    557   381      300.0000   317      292.0000      300.0000  1285936    2.74%
    565   383      300.0000   332      292.0000      300.0000  1299162    2.74%
Elapsed time = 468.13 sec. (484155.92 ticks, tree = 3.10 MB, solutions = 5)
    575   387      300.0000   350      292.0000      300.0000  1308499    2.74%
    584   387      299.0000   394      292.0000      300.0000  1321389    2.74%
    595   392      299.0000   246      292.0000      300.0000  1331819    2.74%
    607   397      299.0000   270      292.0000      300.0000  1341680    2.74%
    614   399      299.0000   371      292.0000      300.0000  1350403    2.74%
    622   406      299.0000   238      292.0000      300.0000  1363141    2.74%
    628   410      299.0000   225      292.0000      300.0000  1377425    2.74%
    634   413      299.0000   239      292.0000      300.0000  1391023    2.74%
    639   416      298.0000   365      292.0000      300.0000  1406726    2.74%
    645   420      298.6424   350      292.0000      300.0000  1421596    2.74%
Elapsed time = 505.69 sec. (523724.26 ticks, tree = 3.22 MB, solutions = 5)
    657   430      297.0000   436      292.0000      300.0000  1430898    2.74%
    669   439      297.0000   446      292.0000      300.0000  1443147    2.74%
    680   445      298.0000   358      292.0000      300.0000  1455952    2.74%
    692   454      298.0000   332      292.0000      300.0000  1467326    2.74%
    706   463      297.0000   414      292.0000      300.0000  1477447    2.74%
    717   470      297.0000   415      292.0000      300.0000  1488082    2.74%
    721   471      296.5400   373      292.0000      300.0000  1492030    2.74%
    737   483      296.0000   311      292.0000      300.0000  1499710    2.74%
    754   494      295.0000   413      292.0000      300.0000  1509015    2.74%
    770   500    infeasible            292.0000      300.0000  1517410    2.74%
Elapsed time = 548.14 sec. (565856.60 ticks, tree = 3.49 MB, solutions = 5)
    791   503    infeasible            292.0000      300.0000  1529667    2.74%
Starting limited solution polishing.
    807   503    infeasible            292.0000      300.0000  1539357    2.74%
    829   507    infeasible            292.0000      300.0000  1551452    2.74%
    838   512      298.0000   330      292.0000      300.0000  1563316    2.74%
    850   521      296.0000   396      292.0000      300.0000  1573390    2.74%
    864   532      296.0000   232      292.0000      300.0000  1578468    2.74%
    879   534      296.0000   187      292.0000      300.0000  1591393    2.74%
    887   534      298.0000   473      292.0000      300.0000  1608759    2.74%
    898   543      296.0000   419      292.0000      300.0000  1619642    2.74%

Clique cuts applied:  35
Zero-half cuts applied:  10

Root node processing (before b&c):
  Real time             =   73.54 sec. (83072.27 ticks)
Sequential b&c:
  Real time             =  526.47 sec. (533235.44 ticks)
                          ------------
Total (root+branch&cut) =  600.01 sec. (616307.71 ticks)
Primal:	292
Dual:	300
Status:	Feasible
Time:	600
Sequence:
	18
	4
	15
	20
	21
	24
	1
	17
	0
	6
	23
	22
	10
	15
	20
	1
	17
	13
	17
	13
	4
	15
	16
	15
	7
	11
	17
	13
	17
	13
	4
	15
	10
	1
	0
	1
	10
	15
	4
	13
	17
	13
	4
	15
	10
	6
	18
	3
	18
	6
	20
	2
	18
	1
	20
	2
	9
	1
	24
	21
	10
	15
	11
	7
	18
	6
	24
	21
	9
	15
	20
	2
	9
	1
	24
	21
	10
	15
	20
	22
	9
	6
	16
	5
	9
	15
	20
	2
	9
	1
	24
	21
	10
	15
	13
	4
	18
	6
	20
	22
	9
	1
	16
	21
	9
	15
	16
	21
	9
	15
	23
	2
	10
	1
	24
	2
	9
	6
	24
	21
	9
	15
	16
	5
	10
	15
	23
	21
	0
	3
	11
	17
	0
	19
	11
	17
	14
	8
	13
	4
	22
	16
	15
	7
	13
	17
	11
	5
	16
	21
	23
	2
	20
	5
	16
	5
	3
	0
	6
	12
	8
	14
	3
	0
	3
	18
	19
	14
	8
	12
	3
	0
	19
	12
	8
	12
	19
	0
	3
	12
	8
	14
	19
	18
	3
	18
	19
	14
	8
	12
	3
	0
	19
	12
	8
	12
	19
	0
	3
	18
	3
	21
	16
	5
	23
	22
	20
	21
	24
	5
	23
	2
	20
	5
	24
	21
	23
	2
	23
	21
	24
	5
	20
	2
	23
	1
	24
	21
	19
	18
	3
	0
	1
	10
	15
	9
	6
	17
	13
	17
	11
	19
	0
	4
	13
	8
	14
	17
	11
	19
	18
	7
	11
	8
	14
	17
	13
	19
	18
	4
	1
	16
	2
	9
	1
	24
	21
	10
	15
	20
	22
	9
	6
	8
	14
	17
	11
	19
	0
	4
	11
	8
	0
	7
	11
	8
	0
	7
	11
	8
	0
	4
